40915 37862 
40527 38053 
41306 37214 
40408 38177 
41561 36661 
41498 36702 
41485 36743 
41688 36398 
41170 37247 
41094 37391 
40322 38194 
40205 38260 
40710 38003 
38909 39273 
39719 38845 
39005 39269 
39297 39082 
38566 39401 
39393 39078 
38092 39603 
37964 39701 
37977 39660 
37787 39770 
37471 39840 
38228 39480 
38209 39533 
38293 39439 
38890 39326 
39049 39133 
38627 39370 
39960 38503 
40159 38315 
39903 38723 
39523 38863 
40066 38497 
39510 38904 
39928 38529 
